50

99 8 298
96 1 345
96 1 297
96 27 354
95 22 303
95 8 291
94 5 326
90 5 339
90 16 318
88 16 317
87 1 263
84 12 271
82 5 343
78 8 331
77 9 249
77 9 276
77 9 326
75 18 282
75 5 334
70 6 310
70 2 244
69 21 305
68 3 291
56 14 335
54 12 351
53 7 258
53 8 272
50 12 269
50 8 237
49 1 353
48 8 333
47 5 312
45 12 290
38 3 359
36 5 150
35 4 348
34 5 113
28 1 151
25 4 339
21 5 192
19 5 97
18 2 355
16 3 168
13 4 343
13 1 305
7 1 105
7 1 215
6 1 81
3 1 159
3 1 302
